NAME          ClpDefau  FREE
ROWS
 N  OBJROW
 L  ZMUNI1_PCT
 L  ZMUNI2_PCT
 L  ZMUNI3_PCT
 L  ZMUNI4_PCT
 L  ZMUNI5_PCT
 L  ZMUNI6_PCT
 L  ZMUNI7_PCT
 L  ZMUNI8_PCT
 L  ZMUNI9_PCT
COLUMNS
    QMUNI1 OBJROW 1.          
    QMUNI1 ZMUNI1_PCT 29573.822   
    QMUNI1 ZMUNI2_PCT 1808.9294   
    QMUNI1 ZMUNI3_PCT 4269.9814   
    QMUNI1 ZMUNI4_PCT 3131.7711   
    QMUNI1 ZMUNI5_PCT 209.6176    
    QMUNI1 ZMUNI6_PCT 366.7831    
    QMUNI1 ZMUNI7_PCT 1813.5071   
    QMUNI1 ZMUNI8_PCT 1415.6342   
    QMUNI1 ZMUNI9_PCT 510.025     
    QMUNI2 OBJROW 1.          
    QMUNI2 ZMUNI1_PCT 1600.2655   
    QMUNI2 ZMUNI2_PCT 34922.7905  
    QMUNI2 ZMUNI3_PCT 2411.4609   
    QMUNI2 ZMUNI4_PCT 2590.6562   
    QMUNI2 ZMUNI5_PCT  -467.4912  
    QMUNI2 ZMUNI6_PCT  -356.4835  
    QMUNI2 ZMUNI7_PCT 647.3542    
    QMUNI2 ZMUNI8_PCT 941.2766    
    QMUNI2 ZMUNI9_PCT 820.5414    
    QMUNI3 OBJROW 1.          
    QMUNI3 ZMUNI1_PCT 3960.8002   
    QMUNI3 ZMUNI2_PCT 2478.0273   
    QMUNI3 ZMUNI3_PCT 30735.5881  
    QMUNI3 ZMUNI4_PCT 4936.7904   
    QMUNI3 ZMUNI5_PCT  -496.2921  
    QMUNI3 ZMUNI6_PCT  -324.0585  
    QMUNI3 ZMUNI7_PCT 1137.1613   
    QMUNI3 ZMUNI8_PCT 1115.036    
    QMUNI3 ZMUNI9_PCT 400.3525    
    QMUNI4 OBJROW 1.          
    QMUNI4 ZMUNI1_PCT 3134.7275   
    QMUNI4 ZMUNI2_PCT 2858.3527   
    QMUNI4 ZMUNI3_PCT 5319.5953   
    QMUNI4 ZMUNI4_PCT 108998.1079 
    QMUNI4 ZMUNI5_PCT  -55.8853   
    QMUNI4 ZMUNI6_PCT 44.4412     
    QMUNI4 ZMUNI7_PCT 971.222     
    QMUNI4 ZMUNI8_PCT 911.7127    
    QMUNI4 ZMUNI9_PCT 276.7563    
    QMUNI5 OBJROW 1.          
    QMUNI5 ZMUNI1_PCT 128.9368    
    QMUNI5 ZMUNI2_PCT  -9.1553    
    QMUNI5 ZMUNI3_PCT 74.5773     
    QMUNI5 ZMUNI4_PCT 69.1414     
    QMUNI5 ZMUNI5_PCT 36532.5928  
    QMUNI5 ZMUNI6_PCT 2681.5414   
    QMUNI5 ZMUNI7_PCT  -3.4332    
    QMUNI5 ZMUNI8_PCT  -154.1138  
    QMUNI5 ZMUNI9_PCT  -317.5736  
    QMUNI6 OBJROW 1.          
    QMUNI6 ZMUNI1_PCT 816.5359    
    QMUNI6 ZMUNI2_PCT 681.1142    
    QMUNI6 ZMUNI3_PCT 750.7324    
    QMUNI6 ZMUNI4_PCT 649.8336    
    QMUNI6 ZMUNI5_PCT 3291.1301   
    QMUNI6 ZMUNI6_PCT 33941.0782  
    QMUNI6 ZMUNI7_PCT 1321.4112   
    QMUNI6 ZMUNI8_PCT 1210.7849   
    QMUNI6 ZMUNI9_PCT 1347.7325   
    QMUNI7 OBJROW 1.          
    QMUNI7 ZMUNI1_PCT 1217.2699   
    QMUNI7 ZMUNI2_PCT 559.2346    
    QMUNI7 ZMUNI3_PCT 1029.2053   
    QMUNI7 ZMUNI4_PCT 757.3127    
    QMUNI7 ZMUNI5_PCT  -96.7026   
    QMUNI7 ZMUNI6_PCT 118.2556    
    QMUNI7 ZMUNI7_PCT 31788.2538  
    QMUNI7 ZMUNI8_PCT 1983.6426   
    QMUNI7 ZMUNI9_PCT 145.5307    
    QMUNI8 OBJROW 1.          
    QMUNI8 ZMUNI1_PCT 1211.7386   
    QMUNI8 ZMUNI2_PCT 1034.7366   
    QMUNI8 ZMUNI3_PCT 1234.2453   
    QMUNI8 ZMUNI4_PCT 993.9193    
    QMUNI8 ZMUNI5_PCT  -126.648   
    QMUNI8 ZMUNI6_PCT 29.7546     
    QMUNI8 ZMUNI7_PCT 2502.06     
    QMUNI8 ZMUNI8_PCT 29753.685   
    QMUNI8 ZMUNI9_PCT 1269.5312   
    QMUNI9 OBJROW 1.          
    QMUNI9 ZMUNI1_PCT 597.9538    
    QMUNI9 ZMUNI2_PCT 908.8516    
    QMUNI9 ZMUNI3_PCT 693.7027    
    QMUNI9 ZMUNI4_PCT 606.9183    
    QMUNI9 ZMUNI5_PCT 101.8524    
    QMUNI9 ZMUNI6_PCT 144.577     
    QMUNI9 ZMUNI7_PCT 823.2117    
    QMUNI9 ZMUNI8_PCT 1369.4763   
    QMUNI9 ZMUNI9_PCT 28512.5732  
RHS
    RHS ZMUNI1_PCT 0.2256359887
    RHS ZMUNI2_PCT 0.0109677503
    RHS ZMUNI3_PCT 0.0943026165
    RHS ZMUNI4_PCT  -0.32015543
    RHS ZMUNI5_PCT -0.072336543
    RHS ZMUNI6_PCT 0.0311373338
    RHS ZMUNI7_PCT 0.097684547 
    RHS ZMUNI8_PCT 0.0292631822
    RHS ZMUNI9_PCT  -0.19502834
BOUNDS
 LO BOUND QMUNI1 -0.000707685
 UP BOUND QMUNI1      1.1e+10
 LO BOUND QMUNI2 -0.000501345
 UP BOUND QMUNI2      1.1e+10
 LO BOUND QMUNI3 -0.00056788 
 UP BOUND QMUNI3      1.1e+10
 LO BOUND QMUNI4 -0.000217019
 UP BOUND QMUNI4      1.1e+10
 LO BOUND QMUNI5 -0.000361837
 UP BOUND QMUNI5      1.1e+10
 LO BOUND QMUNI6 -0.000509335
 UP BOUND QMUNI6      1.1e+10
 LO BOUND QMUNI7 -0.00019895 
 UP BOUND QMUNI7      1.1e+10
 LO BOUND QMUNI8 -0.000307869
 UP BOUND QMUNI8      1.1e+10
 LO BOUND QMUNI9 -0.000319345
 UP BOUND QMUNI9      1.1e+10
ENDATA
